TCS_Benchmarks/redos_fix/corpus2_output_distinct_4592_4591_0_0.txt
(.*)([0-9]+)
(.*)(charset="iso-8859-)([0-9]+)